76	66	69	8	33	89	7	1	85	26	65	31	25	92	65	100	54	73	96	15
83	52	92	34	46	35	87	80	29	62	79	27	33	6	97	31	26	81	52	61
48	4	40	65	90	70	56	5	64	31	59	4	73	62	95	82	76	74	32	67
25	70	60	48	78	59	52	20	94	47	21	85	96	84	30	9	50	68	82	17
54	1	16	24	40	9	78	3	34	55	18	92	91	86	66	95	22	43	34	58
